DATASET = "thpack1";
INSTANCE = "002";

WIDTH = 233;
HEIGHT = 220;
LENGTH = 587;

NO_OF_SHAPES = 3;
size = [|
  49,25,21 |
  60,51,41 |
  103,76,64 |
|];

verticality = [|
  0,1,1 |
  1,1,1 |
  1,1,1 |
|];

box_count = [
  41,
  53,
  44,
];
